NAME          
ROWS
 N  OBJ
 L  c1
COLUMNS
    MARKER    'MARKER'                 'INTORG'
    x[1]      c1        237
    x[1]      OBJ       -509
    x[2]      c1        263
    x[2]      OBJ       -974
    x[3]      c1        19
    x[3]      OBJ       -626
    x[4]      c1        1
    x[4]      OBJ       -945
    x[5]      c1        643
    x[5]      OBJ       -864
    x[6]      c1        47
    x[6]      OBJ       -683
    x[7]      c1        709
    x[7]      OBJ       -67
    x[8]      c1        134
    x[8]      OBJ       -484
    x[9]      c1        827
    x[9]      OBJ       -161
    x[10]     c1        824
    x[10]     OBJ       -294
    x[11]     c1        70
    x[11]     OBJ       -487
    x[12]     c1        148
    x[12]     OBJ       -340
    x[13]     c1        485
    x[13]     OBJ       -68
    x[14]     c1        510
    x[14]     OBJ       -700
    x[15]     c1        609
    x[15]     OBJ       -697
    x[16]     c1        395
    x[16]     OBJ       -604
    x[17]     c1        379
    x[17]     OBJ       -624
    x[18]     c1        191
    x[18]     OBJ       -914
    x[19]     c1        167
    x[19]     OBJ       -448
    x[20]     c1        689
    x[20]     OBJ       -248
    x[21]     c1        220
    x[21]     OBJ       -10
    x[22]     c1        319
    x[22]     OBJ       -714
    x[23]     c1        791
    x[23]     OBJ       -380
    x[24]     c1        361
    x[24]     OBJ       -85
    x[25]     c1        90
    x[25]     OBJ       -219
    x[26]     c1        183
    x[26]     OBJ       -581
    x[27]     c1        237
    x[27]     OBJ       -944
    x[28]     c1        152
    x[28]     OBJ       -720
    x[29]     c1        699
    x[29]     OBJ       -938
    x[30]     c1        557
    x[30]     OBJ       -72
RHS
    rhs       c1        5478
RANGES
BOUNDS
 LO bounds    x[1]      0
 PL bounds    x[1]
 LO bounds    x[2]      0
 PL bounds    x[2]
 LO bounds    x[3]      0
 PL bounds    x[3]
 LO bounds    x[4]      0
 PL bounds    x[4]
 LO bounds    x[5]      0
 PL bounds    x[5]
 LO bounds    x[6]      0
 PL bounds    x[6]
 LO bounds    x[7]      0
 PL bounds    x[7]
 LO bounds    x[8]      0
 PL bounds    x[8]
 LO bounds    x[9]      0
 PL bounds    x[9]
 LO bounds    x[10]     0
 PL bounds    x[10]
 LO bounds    x[11]     0
 PL bounds    x[11]
 LO bounds    x[12]     0
 PL bounds    x[12]
 LO bounds    x[13]     0
 PL bounds    x[13]
 LO bounds    x[14]     0
 PL bounds    x[14]
 LO bounds    x[15]     0
 PL bounds    x[15]
 LO bounds    x[16]     0
 PL bounds    x[16]
 LO bounds    x[17]     0
 PL bounds    x[17]
 LO bounds    x[18]     0
 PL bounds    x[18]
 LO bounds    x[19]     0
 PL bounds    x[19]
 LO bounds    x[20]     0
 PL bounds    x[20]
 LO bounds    x[21]     0
 PL bounds    x[21]
 LO bounds    x[22]     0
 PL bounds    x[22]
 LO bounds    x[23]     0
 PL bounds    x[23]
 LO bounds    x[24]     0
 PL bounds    x[24]
 LO bounds    x[25]     0
 PL bounds    x[25]
 LO bounds    x[26]     0
 PL bounds    x[26]
 LO bounds    x[27]     0
 PL bounds    x[27]
 LO bounds    x[28]     0
 PL bounds    x[28]
 LO bounds    x[29]     0
 PL bounds    x[29]
 LO bounds    x[30]     0
 PL bounds    x[30]
ENDATA
